BatteryLevel=[100,88,95,73,69,73,88];
Brightness =763;
EConsumption=95;
HumidityLevel=54;
minBrightness=300;
MinTankWater=100;
Month=1;
NormalHumidity=80;
opBrightness=700;
OpConsumption=55;
OpTankWater=300;
PowerFailure=0;
Rain=1;
TankLevel=261;
Temperature=10;
WaterConsumption=247;
IN_open=1;
IN_close=0;